30 7
5 3 3 3 4 5 2 
2 8 4
21 22 2
23 1 2
16 21 7
15 19 5
23 2 3
10 14 5
6 10 2
18 21 2
13 16 7
3 7 6
9 13 2
7 11 7
17 21 1
14 17 4
21 0 4
19 20 3
10 14 5
14 17 5
23 3 6
14 17 7
2 6 2
10 14 7
23 2 7
1 6 3
8 9 3
6 9 5
2 6 6
1 4 4
14 19 7
